data/lp_files/pEFS/44_3.lp
\ Model foo
\ LP format - for model browsing. Use MPS format to capture full model detail.
Minimize
  z
Subject To
 allocateEach[1]: x[1,1] + x[2,1] + x[3,1] = 1
 allocateEach[2]: x[1,2] + x[2,2] + x[3,2] = 1
 allocateEach[3]: x[1,3] + x[2,3] + x[3,3] = 1
 allocateEach[4]: x[1,4] + x[2,4] + x[3,4] = 1
 allocateAllCash: cashProportion[1] + cashProportion[2] + cashProportion[3]
   = 1
 findWorstP[1,2]: z + 0.0625312656328164 cashProportion[1]
   - 0.0625312656328164 cashProportion[2] + 0.2176400700350175 x[1,1]
   + 0.2166395697848925 x[1,2] + 0.2879252126063032 x[1,3]
   + 0.2152638819409705 x[1,4] - 0.2176400700350175 x[2,1]
   - 0.2166395697848925 x[2,2] - 0.2879252126063032 x[2,3]
   - 0.2152638819409705 x[2,4] >= 0
 findWorstP[1,3]: z + 0.0625312656328164 cashProportion[1]
   - 0.0625312656328164 cashProportion[3] + 0.2176400700350175 x[1,1]
   + 0.2166395697848925 x[1,2] + 0.2879252126063032 x[1,3]
   + 0.2152638819409705 x[1,4] - 0.2176400700350175 x[3,1]
   - 0.2166395697848925 x[3,2] - 0.2879252126063032 x[3,3]
   - 0.2152638819409705 x[3,4] >= 0
 findWorstP[2,1]: z - 0.0591821033319524 cashProportion[1]
   + 0.0591821033319524 cashProportion[2] - 0.2266674557613777 x[1,1]
   - 0.2833047286500562 x[1,2] - 0.2801976682251286 x[1,3]
   - 0.1506480440314849 x[1,4] + 0.2266674557613777 x[2,1]
   + 0.2833047286500562 x[2,2] + 0.2801976682251286 x[2,3]
   + 0.1506480440314849 x[2,4] >= 0
 findWorstP[2,3]: z + 0.0591821033319524 cashProportion[2]
   - 0.0591821033319524 cashProportion[3] + 0.2266674557613777 x[2,1]
   + 0.2833047286500562 x[2,2] + 0.2801976682251286 x[2,3]
   + 0.1506480440314849 x[2,4] - 0.2266674557613777 x[3,1]
   - 0.2833047286500562 x[3,2] - 0.2801976682251286 x[3,3]
   - 0.1506480440314849 x[3,4] >= 0
 findWorstP[3,1]: z - 0.0734753857457752 cashProportion[1]
   + 0.0734753857457752 cashProportion[3] - 0.0916605437178545 x[1,1]
   - 0.2186627479794269 x[1,2] - 0.2589639970609846 x[1,3]
   - 0.3572373254959589 x[1,4] + 0.0916605437178545 x[3,1]
   + 0.2186627479794269 x[3,2] + 0.2589639970609846 x[3,3]
   + 0.3572373254959589 x[3,4] >= 0
 findWorstP[3,2]: z - 0.0734753857457752 cashProportion[2]
   + 0.0734753857457752 cashProportion[3] - 0.0916605437178545 x[2,1]
   - 0.2186627479794269 x[2,2] - 0.2589639970609846 x[2,3]
   - 0.3572373254959589 x[2,4] + 0.0916605437178545 x[3,1]
   + 0.2186627479794269 x[3,2] + 0.2589639970609846 x[3,3]
   + 0.3572373254959589 x[3,4] >= 0
Bounds
 z <= 1
 -infinity <= cashProportion[1] <= 1
 -infinity <= cashProportion[2] <= 1
 -infinity <= cashProportion[3] <= 1
Binaries
 x[1,1] x[1,2] x[1,3] x[1,4] x[2,1] x[2,2] x[2,3] x[2,4] x[3,1] x[3,2]
 x[3,3] x[3,4]
End
